Geographic Exponential Decay
80 189 262 16 15 133 58 128 256 139 114 57 310 94 170 255 145 116 283 304 257 308 244 127 177 240 31 194 167 254 297 224 178 213 171 311 95 25 185 39 156 286 250 301 96 140 295 235 102 40 125 221 315 248 44 50 281 193 206 279 231 232 316 65 110 18 210 318 216 209 277 30 252 142 313 312 4 208 86 159 195
p edge 320 672
e 0 141 3.0
e 1 48 16.0
e 1 243 1.0
e 1 64 11.0
e 2 239 1.0
e 3 149 23.0
e 3 18 100.0
e 3 272 11.0
e 4 237 84.0
e 4 187 79.0
e 4 219 99.0
e 4 160 39.0
e 4 242 96.0
e 4 296 83.0
e 4 275 3.0
e 4 5 92.0
e 4 245 93.0
e 5 55 24.0
e 5 196 5.0
e 6 58 4.0
e 6 305 11.0
e 7 190 18.0
e 8 114 85.0
e 9 104 11.0
e 10 268 3.0
e 11 57 82.0
e 12 311 47.0
e 13 6 8.0
e 14 133 21.0
e 15 7 96.0
e 15 103 18.0
e 15 221 27.0
e 15 276 99.0
e 15 139 44.0
e 15 279 15.0
e 15 8 20.0
e 15 188 87.0
e 15 9 12.0
e 16 194 21.0
e 16 303 100.0
e 16 12 11.0
e 16 178 93.0
e 16 71 57.0
e 16 15 78.0
e 16 114 19.0
e 16 113 51.0
e 16 221 35.0
e 17 60 7.0
e 17 84 3.0
e 18 92 95.0
e 18 203 61.0
e 18 272 63.0
e 18 205 12.0
e 18 256 63.0
e 18 149 2.0
e 18 150 4.0
e 18 67 16.0
e 19 278 3.0
e 20 84 4.0
e 21 243 9.0
e 21 154 15.0
e 21 48 16.0
e 22 92 6.0
e 22 106 2.0
e 23 127 82.0
e 24 257 43.0
e 25 86 79.0
e 25 13 56.0
e 25 150 6.0
e 25 63 29.0
e 25 129 64.0
e 25 261 60.0
e 25 69 21.0
e 25 252 80.0
e 25 173 22.0
e 26 292 5.0
e 26 225 6.0
e 27 109 1.0
e 28 24 2.0
e 29 25 1.0
e 30 122 58.0
e 30 204 27.0
e 30 314 9.0
e 30 237 91.0
e 30 43 49.0
e 30 35 18.0
e 30 59 83.0
e 30 177 82.0
e 30 132 36.0
e 31 287 55.0
e 31 23 13.0
e 31 193 69.0
e 31 107 16.0
e 31 139 99.0
e 31 231 73.0
e 31 121 6.0
e 31 41 14.0
e 31 99 13.0
e 32 130 4.0
e 33 222 2.0
e 34 99 2.0
e 36 37 1.0
e 38 127 50.0
e 39 253 76.0
e 39 180 30.0
e 39 34 61.0
e 39 116 31.0
e 39 159 57.0
e 39 136 34.0
e 39 75 42.0
e 39 55 79.0
e 39 213 55.0
e 40 76 36.0
e 40 161 68.0
e 40 52 97.0
e 40 157 23.0
e 40 229 55.0
e 40 167 20.0
e 40 77 56.0
e 40 36 22.0
e 40 69 71.0
e 42 32 5.0
e 44 178 7.0
e 44 105 80.0
e 44 182 43.0
e 44 273 62.0
e 44 121 79.0
e 44 279 86.0
e 44 239 61.0
e 44 267 62.0
e 44 314 84.0
e 45 37 1.0
e 46 236 5.0
e 47 178 69.0
e 49 143 1.0
e 49 151 21.0
e 49 206 86.0
e 49 248 22.0
e 49 162 37.0
e 50 20 22.0
e 50 154 52.0
e 50 112 51.0
e 50 175 88.0
e 50 127 14.0
e 50 122 45.0
e 50 155 60.0
e 50 238 1.0
e 50 162 40.0
e 51 183 1.0
e 53 71 14.0
e 53 122 19.0
e 53 105 6.0
e 54 190 20.0
e 56 258 1.0
e 57 201 58.0
e 57 21 89.0
e 57 193 31.0
e 57 72 85.0
e 57 40 92.0
e 57 95 85.0
e 57 189 97.0
e 57 88 86.0
e 58 50 26.0
e 58 0 94.0
e 58 119 91.0
e 58 130 5.0
e 58 100 98.0
e 58 208 41.0
e 58 116 85.0
e 58 146 84.0
e 60 131 8.0
e 61 184 4.0
e 62 72 21.0
e 63 189 9.0
e 63 171 68.0
e 65 3 13.0
e 65 153 11.0
e 65 193 36.0
e 65 215 13.0
e 65 4 30.0
e 65 200 89.0
e 65 10 78.0
e 65 265 20.0
e 65 16 49.0
e 66 315 69.0
e 66 316 26.0
e 66 169 1.0
e 68 188 6.0
e 68 309 5.0
e 70 38 1.0
e 72 160 16.0
e 73 288 6.0
e 73 106 21.0
e 73 131 3.0
e 74 269 10.0
e 74 77 12.0
e 78 228 14.0
e 78 73 4.0
e 78 273 6.0
e 79 283 9.0
e 79 194 14.0
e 80 301 48.0
e 81 14 1.0
e 82 200 3.0
e 83 66 15.0
e 85 125 77.0
e 86 58 33.0
e 86 250 21.0
e 86 279 71.0
e 86 265 50.0
e 86 173 65.0
e 86 316 76.0
e 86 29 12.0
e 86 82 65.0
e 87 201 3.0
e 88 301 85.0
e 89 190 7.0
e 90 41 2.0
e 91 226 4.0
e 93 112 1.0
e 94 123 52.0
e 94 300 78.0
e 94 108 29.0
e 94 110 76.0
e 94 204 28.0
e 94 235 78.0
e 94 113 22.0
e 94 5 72.0
e 94 31 11.0
e 95 179 31.0
e 95 33 49.0
e 95 128 25.0
e 95 191 60.0
e 95 226 20.0
e 95 123 17.0
e 95 318 20.0
e 95 144 79.0
e 96 245 100.0
e 96 192 38.0
e 96 17 94.0
e 96 246 74.0
e 96 107 74.0
e 96 262 48.0
e 96 189 48.0
e 96 247 70.0
e 96 174 59.0
e 97 81 2.0
e 98 225 1.0
e 98 124 11.0
e 98 165 20.0
e 101 59 1.0
e 102 122 21.0
e 102 138 44.0
e 102 27 25.0
e 102 127 42.0
e 102 136 1.0
e 102 172 35.0
e 102 242 9.0
e 102 231 50.0
e 102 183 2.0
e 103 159 68.0
e 104 114 64.0
e 110 42 75.0
e 110 301 26.0
e 110 244 15.0
e 110 11 31.0
e 110 205 22.0
e 110 18 31.0
e 110 164 39.0
e 110 1 75.0
e 111 267 5.0
e 111 194 88.0
e 114 306 41.0
e 114 181 30.0
e 114 19 39.0
e 114 35 13.0
e 114 22 64.0
e 114 26 16.0
e 115 144 1.0
e 116 2 11.0
e 116 269 46.0
e 116 209 78.0
e 116 78 76.0
e 116 188 35.0
e 116 203 58.0
e 116 304 82.0
e 117 49 38.0
e 118 248 24.0
e 120 30 85.0
e 125 177 5.0
e 125 39 70.0
e 125 86 36.0
e 125 43 42.0
e 125 241 48.0
e 125 127 44.0
e 125 126 36.0
e 125 102 23.0
e 127 238 91.0
e 127 223 47.0
e 127 313 23.0
e 127 289 14.0
e 128 51 46.0
e 128 255 22.0
e 128 266 13.0
e 128 44 48.0
e 128 244 49.0
e 128 164 12.0
e 128 124 55.0
e 128 193 83.0
e 133 274 44.0
e 133 244 35.0
e 133 52 38.0
e 133 108 70.0
e 133 186 4.0
e 133 207 37.0
e 133 89 63.0
e 133 277 57.0
e 134 118 2.0
e 135 56 1.0
e 137 111 11.0
e 138 127 31.0
e 139 129 42.0
e 139 270 30.0
e 139 151 69.0
e 139 283 92.0
e 139 125 60.0
e 139 45 63.0
e 139 85 60.0
e 140 139 98.0
e 140 126 83.0
e 140 208 62.0
e 140 165 20.0
e 140 223 48.0
e 140 255 92.0
e 140 28 32.0
e 140 211 15.0
e 140 263 3.0
e 142 70 53.0
e 142 53 77.0
e 142 65 67.0
e 142 103 87.0
e 142 46 38.0
e 142 158 13.0
e 142 100 18.0
e 142 87 27.0
e 142 258 50.0
e 143 240 33.0
e 145 47 32.0
e 145 259 61.0
e 145 161 42.0
e 145 206 18.0
e 145 60 75.0
e 145 198 97.0
e 145 247 89.0
e 145 274 81.0
e 145 246 67.0
e 147 159 78.0
e 148 90 1.0
e 152 54 1.0
e 156 300 63.0
e 156 114 52.0
e 156 91 82.0
e 156 83 98.0
e 156 259 73.0
e 156 268 28.0
e 156 315 71.0
e 156 61 24.0
e 156 75 3.0
e 157 166 6.0
e 157 224 73.0
e 159 244 34.0
e 159 57 60.0
e 159 109 12.0
e 159 96 82.0
e 159 254 20.0
e 159 270 37.0
e 163 198 1.0
e 163 244 21.0
e 166 62 7.0
e 167 215 58.0
e 167 63 45.0
e 167 184 66.0
e 167 276 19.0
e 167 199 10.0
e 167 97 88.0
e 167 206 74.0
e 167 262 17.0
e 168 166 3.0
e 170 64 42.0
e 170 67 86.0
e 170 68 19.0
e 170 72 93.0
e 170 163 60.0
e 170 175 82.0
e 170 74 79.0
e 170 167 87.0
e 170 94 70.0
e 171 233 4.0
e 171 177 20.0
e 171 76 37.0
e 171 132 14.0
e 171 79 13.0
e 171 307 27.0
e 171 80 17.0
e 171 88 4.0
e 174 297 28.0
e 176 256 61.0
e 177 128 51.0
e 177 93 60.0
e 177 168 62.0
e 177 253 28.0
e 177 95 87.0
e 177 98 84.0
e 178 217 87.0
e 178 185 25.0
e 178 101 82.0
e 178 104 21.0
e 178 176 69.0
e 178 202 37.0
e 185 152 31.0
e 185 169 73.0
e 185 117 34.0
e 185 276 25.0
e 185 220 78.0
e 185 110 6.0
e 185 115 66.0
e 185 116 77.0
e 189 199 61.0
e 189 179 97.0
e 189 119 58.0
e 189 120 87.0
e 189 133 30.0
e 189 134 69.0
e 193 138 11.0
e 193 135 84.0
e 193 137 98.0
e 193 140 41.0
e 193 206 31.0
e 194 141 80.0
e 194 245 63.0
e 194 252 1.0
e 194 142 35.0
e 194 287 24.0
e 194 271 91.0
e 195 215 50.0
e 195 143 13.0
e 195 275 79.0
e 195 145 95.0
e 195 190 41.0
e 195 146 81.0
e 195 147 85.0
e 195 177 40.0
e 195 294 75.0
e 197 254 5.0
e 206 214 61.0
e 206 288 75.0
e 206 148 90.0
e 206 153 69.0
e 206 154 32.0
e 208 178 77.0
e 208 155 80.0
e 208 180 15.0
e 208 170 71.0
e 208 224 66.0
e 208 227 10.0
e 208 251 84.0
e 209 156 43.0
e 209 157 1.0
e 209 253 44.0
e 209 158 59.0
e 209 206 80.0
e 209 159 7.0
e 209 171 50.0
e 209 240 20.0
e 210 297 22.0
e 210 172 62.0
e 210 174 81.0
e 210 181 48.0
e 210 282 50.0
e 210 207 25.0
e 210 182 96.0
e 210 185 41.0
e 210 202 65.0
e 212 186 1.0
e 213 187 22.0
e 213 192 37.0
e 213 208 74.0
e 213 189 57.0
e 213 191 25.0
e 213 271 94.0
e 213 193 57.0
e 213 194 24.0
e 216 195 9.0
e 216 196 93.0
e 216 197 22.0
e 216 209 83.0
e 216 210 95.0
e 216 290 10.0
e 216 211 15.0
e 216 212 14.0
e 216 214 70.0
e 218 293 2.0
e 221 213 47.0
e 221 215 9.0
e 221 216 25.0
e 221 217 49.0
e 221 218 39.0
e 221 289 62.0
e 221 219 40.0
e 224 220 71.0
e 224 221 70.0
e 224 251 20.0
e 224 260 89.0
e 224 222 27.0
e 224 227 90.0
e 224 281 90.0
e 228 224 37.0
e 230 227 11.0
e 231 228 52.0
e 231 229 35.0
e 231 230 5.0
e 231 232 89.0
e 231 233 23.0
e 231 234 1.0
e 231 235 18.0
e 232 234 26.0
e 232 240 34.0
e 232 241 64.0
e 232 235 32.0
e 232 236 8.0
e 232 244 2.0
e 232 248 25.0
e 232 249 73.0
e 235 279 97.0
e 235 284 47.0
e 235 290 61.0
e 235 236 36.0
e 235 240 50.0
e 235 244 49.0
e 240 231 69.0
e 240 244 96.0
e 240 248 57.0
e 240 298 30.0
e 240 249 91.0
e 244 248 30.0
e 248 262 22.0
e 248 235 36.0
e 248 250 27.0
e 248 251 6.0
e 250 232 7.0
e 250 240 88.0
e 250 244 97.0
e 250 251 3.0
e 250 252 33.0
e 250 254 66.0
e 250 317 3.0
e 252 248 12.0
e 252 254 36.0
e 252 255 67.0
e 252 308 52.0
e 252 256 52.0
e 252 257 54.0
e 254 255 86.0
e 254 256 69.0
e 254 257 88.0
e 254 260 42.0
e 254 261 65.0
e 255 250 94.0
e 255 296 56.0
e 255 256 79.0
e 255 257 25.0
e 255 312 21.0
e 256 295 21.0
e 256 257 73.0
e 256 262 50.0
e 256 263 18.0
e 257 262 13.0
e 257 302 4.0
e 257 264 91.0
e 257 265 61.0
e 262 252 17.0
e 262 279 13.0
e 262 254 71.0
e 262 277 81.0
e 265 255 28.0
e 265 256 91.0
e 266 257 56.0
e 277 264 96.0
e 277 265 86.0
e 277 266 29.0
e 277 278 61.0
e 277 279 5.0
e 277 280 23.0
e 277 281 56.0
e 279 280 57.0
e 279 281 67.0
e 279 282 99.0
e 281 304 61.0
e 281 262 19.0
e 281 315 38.0
e 281 283 47.0
e 281 284 23.0
e 281 316 22.0
e 283 277 48.0
e 283 279 1.0
e 283 285 81.0
e 283 286 75.0
e 283 291 58.0
e 283 292 81.0
e 285 291 1.0
e 286 281 1.0
e 286 285 21.0
e 286 293 90.0
e 286 294 97.0
e 286 295 22.0
e 286 296 18.0
e 286 297 52.0
e 286 298 88.0
e 295 283 82.0
e 295 297 46.0
e 295 299 7.0
e 295 301 6.0
e 295 302 91.0
e 295 303 92.0
e 295 304 68.0
e 297 299 14.0
e 297 301 100.0
e 297 304 16.0
e 297 305 66.0
e 297 306 22.0
e 301 286 94.0
e 301 304 8.0
e 301 307 4.0
e 301 308 78.0
e 304 308 30.0
e 304 309 92.0
e 304 310 17.0
e 304 311 78.0
e 308 295 35.0
e 308 297 29.0
e 308 309 69.0
e 308 310 46.0
e 308 311 42.0
e 308 312 98.0
e 310 301 68.0
e 310 311 30.0
e 310 312 62.0
e 310 313 54.0
e 310 315 70.0
e 310 316 13.0
e 310 317 63.0
e 311 312 78.0
e 311 313 37.0
e 311 315 77.0
e 311 316 30.0
e 311 317 48.0
e 312 304 49.0
e 312 313 16.0
e 312 315 29.0
e 312 316 31.0
e 312 318 71.0
e 313 308 12.0
e 313 315 17.0
e 313 316 66.0
e 313 318 91.0
e 313 319 15.0
e 315 316 18.0
e 315 318 68.0
e 316 318 76.0
e 318 310 58.0
e 318 311 55.0
e 318 319 14.0
